p cnf 686 3429
1 2 3 4 5 6 0
1 7 13 0
-1 19 0
-19 20 0
-2 -19 21 0
-21 22 0
-3 -21 23 0
-23 24 0
-4 -23 25 0
-25 26 0
-5 -25 27 0
-27 28 0
-6 -27 29 0
-29 30 0
-7 -29 31 0
-31 32 0
-8 -31 33 0
-33 34 0
-9 -33 35 0
-35 36 0
-10 -35 37 0
-37 38 0
-11 -37 39 0
-39 40 0
-12 -39 0
-2 20 0
-20 41 0
-3 -20 22 0
-22 42 0
-4 -22 24 0
-24 43 0
-5 -24 26 0
-26 44 0
-6 -26 28 0
-28 45 0
-7 -28 30 0
-30 46 0
-8 -30 32 0
-32 47 0
-9 -32 34 0
-34 48 0
-10 -34 36 0
-36 49 0
-11 -36 38 0
-38 50 0
-12 -38 40 0
-40 51 0
-13 -40 0
-3 41 0
-41 52 0
-4 -41 42 0
-42 53 0
-5 -42 43 0
-43 54 0
-6 -43 44 0
-44 55 0
-7 -44 45 0
-45 56 0
-8 -45 46 0
-46 57 0
-9 -46 47 0
-47 58 0
-10 -47 48 0
-48 59 0
-11 -48 49 0
-49 60 0
-12 -49 50 0
-50 61 0
-13 -50 51 0
-51 62 0
-14 -51 0
-4 52 0
-52 63 0
-5 -52 53 0
-53 64 0
-6 -53 54 0
-54 65 0
-7 -54 55 0
-55 66 0
-8 -55 56 0
-56 67 0
-9 -56 57 0
-57 68 0
-10 -57 58 0
-58 69 0
-11 -58 59 0
-59 70 0
-12 -59 60 0
-60 71 0
-13 -60 61 0
-61 72 0
-14 -61 62 0
-62 73 0
-15 -62 0
-5 63 0
-63 74 0
-6 -63 64 0
-64 75 0
-7 -64 65 0
-65 76 0
-8 -65 66 0
-66 77 0
-9 -66 67 0
-67 78 0
-10 -67 68 0
-68 79 0
-11 -68 69 0
-69 80 0
-12 -69 70 0
-70 81 0
-13 -70 71 0
-71 82 0
-14 -71 72 0
-72 83 0
-15 -72 73 0
-73 84 0
-16 -73 0
-6 74 0
-74 85 0
-7 -74 75 0
-75 86 0
-8 -75 76 0
-76 87 0
-9 -76 77 0
-77 88 0
-10 -77 78 0
-78 89 0
-11 -78 79 0
-79 90 0
-12 -79 80 0
-80 91 0
-13 -80 81 0
-81 92 0
-14 -81 82 0
-82 93 0
-15 -82 83 0
-83 94 0
-16 -83 84 0
-84 95 0
-17 -84 0
-7 85 0
-8 -85 86 0
-9 -86 87 0
-10 -87 88 0
-11 -88 89 0
-12 -89 90 0
-13 -90 91 0
-14 -91 92 0
-15 -92 93 0
-16 -93 94 0
-17 -94 95 0
-18 -95 0
1 96 0
-96 97 0
2 -96 98 0
-98 99 0
3 -98 100 0
-100 101 0
4 -100 102 0
-102 103 0
5 -102 104 0
-104 105 0
6 -104 106 0
-106 107 0
7 -106 108 0
-108 109 0
8 -108 0
2 97 0
-97 110 0
3 -97 99 0
-99 111 0
4 -99 101 0
-101 112 0
5 -101 103 0
-103 113 0
6 -103 105 0
-105 114 0
7 -105 107 0
-107 115 0
8 -107 109 0
-109 116 0
9 -109 0
3 110 0
-110 117 0
4 -110 111 0
-111 118 0
5 -111 112 0
-112 119 0
6 -112 113 0
-113 120 0
7 -113 114 0
-114 121 0
8 -114 115 0
-115 122 0
9 -115 116 0
-116 123 0
10 -116 0
4 117 0
-117 124 0
5 -117 118 0
-118 125 0
6 -118 119 0
-119 126 0
7 -119 120 0
-120 127 0
8 -120 121 0
-121 128 0
9 -121 122 0
-122 129 0
10 -122 123 0
-123 130 0
11 -123 0
5 124 0
-124 131 0
6 -124 125 0
-125 132 0
7 -125 126 0
-126 133 0
8 -126 127 0
-127 134 0
9 -127 128 0
-128 135 0
10 -128 129 0
-129 136 0
11 -129 130 0
-130 137 0
12 -130 0
6 131 0
-131 138 0
7 -131 132 0
-132 139 0
8 -132 133 0
-133 140 0
9 -133 134 0
-134 141 0
10 -134 135 0
-135 142 0
11 -135 136 0
-136 143 0
12 -136 137 0
-137 144 0
13 -137 0
7 138 0
-138 145 0
8 -138 139 0
-139 146 0
9 -139 140 0
-140 147 0
10 -140 141 0
-141 148 0
11 -141 142 0
-142 149 0
12 -142 143 0
-143 150 0
13 -143 144 0
-144 151 0
14 -144 0
8 145 0
-145 152 0
9 -145 146 0
-146 153 0
10 -146 147 0
-147 154 0
11 -147 148 0
-148 155 0
12 -148 149 0
-149 156 0
13 -149 150 0
-150 157 0
14 -150 151 0
-151 158 0
15 -151 0
9 152 0
-152 159 0
10 -152 153 0
-153 160 0
11 -153 154 0
-154 161 0
12 -154 155 0
-155 162 0
13 -155 156 0
-156 163 0
14 -156 157 0
-157 164 0
15 -157 158 0
-158 165 0
16 -158 0
10 159 0
-159 166 0
11 -159 160 0
-160 167 0
12 -160 161 0
-161 168 0
13 -161 162 0
-162 169 0
14 -162 163 0
-163 170 0
15 -163 164 0
-164 171 0
16 -164 165 0
-165 172 0
17 -165 0
11 166 0
12 -166 167 0
13 -167 168 0
14 -168 169 0
15 -169 170 0
16 -170 171 0
17 -171 172 0
18 -172 0
-173 1 0
-173 2 0
-173 3 0
-173 4 0
-173 5 0
-173 6 0
-174 7 0
-174 8 0
-174 9 0
-174 10 0
-174 11 0
-174 12 0
-175 13 0
-175 14 0
-175 15 0
-175 16 0
-175 17 0
-175 18 0
173 174 175 0
-176 4 0
-176 7 0
-176 8 0
-176 9 0
-176 10 0
-176 16 0
-177 5 0
-177 8 0
-177 9 0
-177 10 0
-177 11 0
-177 17 0
-178 6 0
-178 9 0
-178 10 0
-178 11 0
-178 12 0
-178 18 0
-179 1 0
-179 7 0
-179 8 0
-179 9 0
-179 10 0
-179 13 0
-180 2 0
-180 8 0
-180 9 0
-180 10 0
-180 11 0
-180 14 0
-181 3 0
-181 9 0
-181 10 0
-181 11 0
-181 12 0
-181 15 0
176 177 178 179 180 181 0
-182 4 0
-182 7 0
-182 8 0
-182 9 0
-182 10 0
-182 13 0
-183 5 0
-183 8 0
-183 9 0
-183 10 0
-183 11 0
-183 14 0
-184 6 0
-184 9 0
-184 10 0
-184 11 0
-184 12 0
-184 15 0
-185 1 0
-185 7 0
-185 8 0
-185 9 0
-185 10 0
-185 16 0
-186 2 0
-186 8 0
-186 9 0
-186 10 0
-186 11 0
-186 17 0
-187 3 0
-187 9 0
-187 10 0
-187 11 0
-187 12 0
-187 18 0
182 183 184 185 186 187 0
-188 2 0
-188 7 0
-188 8 0
-188 9 0
-188 10 0
-188 14 0
-189 3 0
-189 8 0
-189 9 0
-189 10 0
-189 11 0
-189 15 0
-190 4 0
-190 9 0
-190 10 0
-190 11 0
-190 12 0
-190 16 0
-191 3 0
-191 7 0
-191 8 0
-191 9 0
-191 10 0
-191 15 0
-192 4 0
-192 8 0
-192 9 0
-192 10 0
-192 11 0
-192 16 0
-193 5 0
-193 9 0
-193 10 0
-193 11 0
-193 12 0
-193 17 0
188 189 190 191 192 193 0
-194 1 0
-194 2 0
-194 8 0
-194 9 0
-194 15 0
-194 16 0
-195 2 0
-195 3 0
-195 9 0
-195 10 0
-195 16 0
-195 17 0
-196 3 0
-196 4 0
-196 10 0
-196 11 0
-196 17 0
-196 18 0
-197 3 0
-197 4 0
-197 8 0
-197 9 0
-197 13 0
-197 14 0
-198 4 0
-198 5 0
-198 9 0
-198 10 0
-198 14 0
-198 15 0
-199 5 0
-199 6 0
-199 10 0
-199 11 0
-199 15 0
-199 16 0
194 195 196 197 198 199 0
-200 2 0
-200 7 0
-200 8 0
-200 9 0
-200 10 0
-200 15 0
-201 3 0
-201 8 0
-201 9 0
-201 10 0
-201 11 0
-201 16 0
-202 4 0
-202 9 0
-202 10 0
-202 11 0
-202 12 0
-202 17 0
-203 3 0
-203 7 0
-203 8 0
-203 9 0
-203 10 0
-203 14 0
-204 4 0
-204 8 0
-204 9 0
-204 10 0
-204 11 0
-204 15 0
-205 5 0
-205 9 0
-205 10 0
-205 11 0
-205 12 0
-205 16 0
200 201 202 203 204 205 0
-206 1 0
-206 2 0
-206 3 0
-206 4 0
-206 5 0
-206 9 0
-207 2 0
-207 3 0
-207 4 0
-207 5 0
-207 6 0
-207 10 0
-208 7 0
-208 8 0
-208 9 0
-208 10 0
-208 11 0
-208 15 0
-209 8 0
-209 9 0
-209 10 0
-209 11 0
-209 12 0
-209 16 0
-210 3 0
-210 7 0
-210 8 0
-210 9 0
-210 10 0
-210 11 0
-211 4 0
-211 8 0
-211 9 0
-211 10 0
-211 11 0
-211 12 0
-212 9 0
-212 13 0
-212 14 0
-212 15 0
-212 16 0
-212 17 0
-213 10 0
-213 14 0
-213 15 0
-213 16 0
-213 17 0
-213 18 0
206 207 208 209 210 211 212 213 0
-214 1 0
-214 2 0
-214 3 0
-214 9 0
-214 10 0
-214 11 0
-215 2 0
-215 3 0
-215 4 0
-215 10 0
-215 11 0
-215 12 0
-216 7 0
-216 8 0
-216 9 0
-216 15 0
-216 16 0
-216 17 0
-217 8 0
-217 9 0
-217 10 0
-217 16 0
-217 17 0
-217 18 0
-218 3 0
-218 4 0
-218 5 0
-218 7 0
-218 8 0
-218 9 0
-219 4 0
-219 5 0
-219 6 0
-219 8 0
-219 9 0
-219 10 0
-220 9 0
-220 10 0
-220 11 0
-220 13 0
-220 14 0
-220 15 0
-221 10 0
-221 11 0
-221 12 0
-221 14 0
-221 15 0
-221 16 0
214 215 216 217 218 219 220 221 0
-222 4 0
-222 7 0
-222 8 0
-222 9 0
-222 10 0
-222 15 0
-223 5 0
-223 8 0
-223 9 0
-223 10 0
-223 11 0
-223 16 0
-224 6 0
-224 9 0
-224 10 0
-224 11 0
-224 12 0
-224 17 0
-225 2 0
-225 7 0
-225 8 0
-225 9 0
-225 10 0
-225 13 0
-226 3 0
-226 8 0
-226 9 0
-226 10 0
-226 11 0
-226 14 0
-227 4 0
-227 9 0
-227 10 0
-227 11 0
-227 12 0
-227 15 0
-228 1 0
-228 7 0
-228 8 0
-228 9 0
-228 10 0
-228 14 0
-229 2 0
-229 8 0
-229 9 0
-229 10 0
-229 11 0
-229 15 0
-230 3 0
-230 9 0
-230 10 0
-230 11 0
-230 12 0
-230 16 0
-231 3 0
-231 7 0
-231 8 0
-231 9 0
-231 10 0
-231 16 0
-232 4 0
-232 8 0
-232 9 0
-232 10 0
-232 11 0
-232 17 0
-233 5 0
-233 9 0
-233 10 0
-233 11 0
-233 12 0
-233 18 0
222 223 224 225 226 227 228 229 230 231 232 233 0
-234 4 0
-234 7 0
-234 8 0
-234 9 0
-234 10 0
-234 14 0
-235 5 0
-235 8 0
-235 9 0
-235 10 0
-235 11 0
-235 15 0
-236 6 0
-236 9 0
-236 10 0
-236 11 0
-236 12 0
-236 16 0
-237 3 0
-237 7 0
-237 8 0
-237 9 0
-237 10 0
-237 13 0
-238 4 0
-238 8 0
-238 9 0
-238 10 0
-238 11 0
-238 14 0
-239 5 0
-239 9 0
-239 10 0
-239 11 0
-239 12 0
-239 15 0
-240 1 0
-240 7 0
-240 8 0
-240 9 0
-240 10 0
-240 15 0
-241 2 0
-241 8 0
-241 9 0
-241 10 0
-241 11 0
-241 16 0
-242 3 0
-242 9 0
-242 10 0
-242 11 0
-242 12 0
-242 17 0
-243 2 0
-243 7 0
-243 8 0
-243 9 0
-243 10 0
-243 16 0
-244 3 0
-244 8 0
-244 9 0
-244 10 0
-244 11 0
-244 17 0
-245 4 0
-245 9 0
-245 10 0
-245 11 0
-245 12 0
-245 18 0
234 235 236 237 238 239 240 241 242 243 244 245 0
-246 1 0
-246 2 0
-246 3 0
-246 9 0
-246 10 0
-246 15 0
-247 2 0
-247 3 0
-247 4 0
-247 10 0
-247 11 0
-247 16 0
-248 3 0
-248 4 0
-248 5 0
-248 11 0
-248 12 0
-248 17 0
-249 2 0
-249 7 0
-249 8 0
-249 14 0
-249 15 0
-249 16 0
-250 3 0
-250 8 0
-250 9 0
-250 15 0
-250 16 0
-250 17 0
-251 4 0
-251 9 0
-251 10 0
-251 16 0
-251 17 0
-251 18 0
-252 2 0
-252 3 0
-252 4 0
-252 7 0
-252 8 0
-252 14 0
-253 3 0
-253 4 0
-253 5 0
-253 8 0
-253 9 0
-253 15 0
-254 4 0
-254 5 0
-254 6 0
-254 9 0
-254 10 0
-254 16 0
-255 3 0
-255 9 0
-255 10 0
-255 13 0
-255 14 0
-255 15 0
-256 4 0
-256 10 0
-256 11 0
-256 14 0
-256 15 0
-256 16 0
-257 5 0
-257 11 0
-257 12 0
-257 15 0
-257 16 0
-257 17 0
246 247 248 249 250 251 252 253 254 255 256 257 0
-258 1 0
-258 2 0
-258 3 0
-258 9 0
-258 15 0
-258 16 0
-259 2 0
-259 3 0
-259 4 0
-259 10 0
-259 16 0
-259 17 0
-260 3 0
-260 4 0
-260 5 0
-260 11 0
-260 17 0
-260 18 0
-261 1 0
-261 2 0
-261 8 0
-261 14 0
-261 15 0
-261 16 0
-262 2 0
-262 3 0
-262 9 0
-262 15 0
-262 16 0
-262 17 0
-263 3 0
-263 4 0
-263 10 0
-263 16 0
-263 17 0
-263 18 0
-264 2 0
-264 3 0
-264 4 0
-264 8 0
-264 13 0
-264 14 0
-265 3 0
-265 4 0
-265 5 0
-265 9 0
-265 14 0
-265 15 0
-266 4 0
-266 5 0
-266 6 0
-266 10 0
-266 15 0
-266 16 0
-267 3 0
-267 4 0
-267 9 0
-267 13 0
-267 14 0
-267 15 0
-268 4 0
-268 5 0
-268 10 0
-268 14 0
-268 15 0
-268 16 0
-269 5 0
-269 6 0
-269 11 0
-269 15 0
-269 16 0
-269 17 0
258 259 260 261 262 263 264 265 266 267 268 269 0
-270 1 0
-270 2 0
-270 3 0
-270 4 0
-270 8 0
-270 14 0
-271 2 0
-271 3 0
-271 4 0
-271 5 0
-271 9 0
-271 15 0
-272 3 0
-272 4 0
-272 5 0
-272 6 0
-272 10 0
-272 16 0
-273 3 0
-273 9 0
-273 13 0
-273 14 0
-273 15 0
-273 16 0
-274 4 0
-274 10 0
-274 14 0
-274 15 0
-274 16 0
-274 17 0
-275 5 0
-275 11 0
-275 15 0
-275 16 0
-275 17 0
-275 18 0
-276 1 0
-276 2 0
-276 3 0
-276 4 0
-276 9 0
-276 15 0
-277 2 0
-277 3 0
-277 4 0
-277 5 0
-277 10 0
-277 16 0
-278 3 0
-278 4 0
-278 5 0
-278 6 0
-278 11 0
-278 17 0
-279 2 0
-279 8 0
-279 13 0
-279 14 0
-279 15 0
-279 16 0
-280 3 0
-280 9 0
-280 14 0
-280 15 0
-280 16 0
-280 17 0
-281 4 0
-281 10 0
-281 15 0
-281 16 0
-281 17 0
-281 18 0
270 271 272 273 274 275 276 277 278 279 280 281 0
-282 1 0
-282 2 0
-282 8 0
-282 9 0
-282 10 0
-282 14 0
-283 2 0
-283 3 0
-283 9 0
-283 10 0
-283 11 0
-283 15 0
-284 3 0
-284 4 0
-284 10 0
-284 11 0
-284 12 0
-284 16 0
-285 3 0
-285 7 0
-285 8 0
-285 9 0
-285 15 0
-285 16 0
-286 4 0
-286 8 0
-286 9 0
-286 10 0
-286 16 0
-286 17 0
-287 5 0
-287 9 0
-287 10 0
-287 11 0
-287 17 0
-287 18 0
-288 3 0
-288 4 0
-288 7 0
-288 8 0
-288 9 0
-288 15 0
-289 4 0
-289 5 0
-289 8 0
-289 9 0
-289 10 0
-289 16 0
-290 5 0
-290 6 0
-290 9 0
-290 10 0
-290 11 0
-290 17 0
-291 2 0
-291 8 0
-291 9 0
-291 10 0
-291 13 0
-291 14 0
-292 3 0
-292 9 0
-292 10 0
-292 11 0
-292 14 0
-292 15 0
-293 4 0
-293 10 0
-293 11 0
-293 12 0
-293 15 0
-293 16 0
282 283 284 285 286 287 288 289 290 291 292 293 0
-294 1 0
-294 2 0
-294 3 0
-294 4 0
-294 7 0
-294 13 0
-295 2 0
-295 3 0
-295 4 0
-295 5 0
-295 8 0
-295 14 0
-296 3 0
-296 4 0
-296 5 0
-296 6 0
-296 9 0
-296 15 0
-297 4 0
-297 10 0
-297 13 0
-297 14 0
-297 15 0
-297 16 0
-298 5 0
-298 11 0
-298 14 0
-298 15 0
-298 16 0
-298 17 0
-299 6 0
-299 12 0
-299 15 0
-299 16 0
-299 17 0
-299 18 0
-300 1 0
-300 2 0
-300 3 0
-300 4 0
-300 10 0
-300 16 0
-301 2 0
-301 3 0
-301 4 0
-301 5 0
-301 11 0
-301 17 0
-302 3 0
-302 4 0
-302 5 0
-302 6 0
-302 12 0
-302 18 0
-303 1 0
-303 7 0
-303 13 0
-303 14 0
-303 15 0
-303 16 0
-304 2 0
-304 8 0
-304 14 0
-304 15 0
-304 16 0
-304 17 0
-305 3 0
-305 9 0
-305 15 0
-305 16 0
-305 17 0
-305 18 0
294 295 296 297 298 299 300 301 302 303 304 305 0
-306 1 0
-306 2 0
-306 3 0
-306 9 0
-306 10 0
-306 16 0
-307 2 0
-307 3 0
-307 4 0
-307 10 0
-307 11 0
-307 17 0
-308 3 0
-308 4 0
-308 5 0
-308 11 0
-308 12 0
-308 18 0
-309 1 0
-309 7 0
-309 8 0
-309 14 0
-309 15 0
-309 16 0
-310 2 0
-310 8 0
-310 9 0
-310 15 0
-310 16 0
-310 17 0
-311 3 0
-311 9 0
-311 10 0
-311 16 0
-311 17 0
-311 18 0
-312 2 0
-312 3 0
-312 4 0
-312 7 0
-312 8 0
-312 13 0
-313 3 0
-313 4 0
-313 5 0
-313 8 0
-313 9 0
-313 14 0
-314 4 0
-314 5 0
-314 6 0
-314 9 0
-314 10 0
-314 15 0
-315 4 0
-315 9 0
-315 10 0
-315 13 0
-315 14 0
-315 15 0
-316 5 0
-316 10 0
-316 11 0
-316 14 0
-316 15 0
-316 16 0
-317 6 0
-317 11 0
-317 12 0
-317 15 0
-317 16 0
-317 17 0
306 307 308 309 310 311 312 313 314 315 316 317 0
-318 1 0
-318 2 0
-318 8 0
-318 9 0
-318 10 0
-318 15 0
-319 2 0
-319 3 0
-319 9 0
-319 10 0
-319 11 0
-319 16 0
-320 3 0
-320 4 0
-320 10 0
-320 11 0
-320 12 0
-320 17 0
-321 2 0
-321 7 0
-321 8 0
-321 9 0
-321 15 0
-321 16 0
-322 3 0
-322 8 0
-322 9 0
-322 10 0
-322 16 0
-322 17 0
-323 4 0
-323 9 0
-323 10 0
-323 11 0
-323 17 0
-323 18 0
-324 3 0
-324 4 0
-324 7 0
-324 8 0
-324 9 0
-324 14 0
-325 4 0
-325 5 0
-325 8 0
-325 9 0
-325 10 0
-325 15 0
-326 5 0
-326 6 0
-326 9 0
-326 10 0
-326 11 0
-326 16 0
-327 3 0
-327 8 0
-327 9 0
-327 10 0
-327 13 0
-327 14 0
-328 4 0
-328 9 0
-328 10 0
-328 11 0
-328 14 0
-328 15 0
-329 5 0
-329 10 0
-329 11 0
-329 12 0
-329 15 0
-329 16 0
318 319 320 321 322 323 324 325 326 327 328 329 0
-330 1 0
-330 2 0
-330 3 0
-330 4 0
-330 8 0
-330 9 0
-331 2 0
-331 3 0
-331 4 0
-331 5 0
-331 9 0
-331 10 0
-332 3 0
-332 4 0
-332 5 0
-332 6 0
-332 10 0
-332 11 0
-333 7 0
-333 8 0
-333 9 0
-333 10 0
-333 14 0
-333 15 0
-334 8 0
-334 9 0
-334 10 0
-334 11 0
-334 15 0
-334 16 0
-335 9 0
-335 10 0
-335 11 0
-335 12 0
-335 16 0
-335 17 0
-336 2 0
-336 3 0
-336 7 0
-336 8 0
-336 9 0
-336 10 0
-337 3 0
-337 4 0
-337 8 0
-337 9 0
-337 10 0
-337 11 0
-338 4 0
-338 5 0
-338 9 0
-338 10 0
-338 11 0
-338 12 0
-339 8 0
-339 9 0
-339 13 0
-339 14 0
-339 15 0
-339 16 0
-340 9 0
-340 10 0
-340 14 0
-340 15 0
-340 16 0
-340 17 0
-341 10 0
-341 11 0
-341 15 0
-341 16 0
-341 17 0
-341 18 0
330 331 332 333 334 335 336 337 338 339 340 341 0
-342 1 0
-342 2 0
-342 3 0
-342 8 0
-342 9 0
-342 10 0
-343 2 0
-343 3 0
-343 4 0
-343 9 0
-343 10 0
-343 11 0
-344 3 0
-344 4 0
-344 5 0
-344 10 0
-344 11 0
-344 12 0
-345 7 0
-345 8 0
-345 9 0
-345 14 0
-345 15 0
-345 16 0
-346 8 0
-346 9 0
-346 10 0
-346 15 0
-346 16 0
-346 17 0
-347 9 0
-347 10 0
-347 11 0
-347 16 0
-347 17 0
-347 18 0
-348 2 0
-348 3 0
-348 4 0
-348 7 0
-348 8 0
-348 9 0
-349 3 0
-349 4 0
-349 5 0
-349 8 0
-349 9 0
-349 10 0
-350 4 0
-350 5 0
-350 6 0
-350 9 0
-350 10 0
-350 11 0
-351 8 0
-351 9 0
-351 10 0
-351 13 0
-351 14 0
-351 15 0
-352 9 0
-352 10 0
-352 11 0
-352 14 0
-352 15 0
-352 16 0
-353 10 0
-353 11 0
-353 12 0
-353 15 0
-353 16 0
-353 17 0
342 343 344 345 346 347 348 349 350 351 352 353 0
-354 1 0
-354 2 0
-354 8 0
-354 9 0
-354 10 0
-354 16 0
-355 2 0
-355 3 0
-355 9 0
-355 10 0
-355 11 0
-355 17 0
-356 3 0
-356 4 0
-356 10 0
-356 11 0
-356 12 0
-356 18 0
-357 1 0
-357 7 0
-357 8 0
-357 9 0
-357 15 0
-357 16 0
-358 2 0
-358 8 0
-358 9 0
-358 10 0
-358 16 0
-358 17 0
-359 3 0
-359 9 0
-359 10 0
-359 11 0
-359 17 0
-359 18 0
-360 3 0
-360 4 0
-360 7 0
-360 8 0
-360 9 0
-360 13 0
-361 4 0
-361 5 0
-361 8 0
-361 9 0
-361 10 0
-361 14 0
-362 5 0
-362 6 0
-362 9 0
-362 10 0
-362 11 0
-362 15 0
-363 4 0
-363 8 0
-363 9 0
-363 10 0
-363 13 0
-363 14 0
-364 5 0
-364 9 0
-364 10 0
-364 11 0
-364 14 0
-364 15 0
-365 6 0
-365 10 0
-365 11 0
-365 12 0
-365 15 0
-365 16 0
354 355 356 357 358 359 360 361 362 363 364 365 0
-366 1 0
-366 2 0
-366 3 0
-366 4 0
-366 7 0
-366 10 0
-367 2 0
-367 3 0
-367 4 0
-367 5 0
-367 8 0
-367 11 0
-368 3 0
-368 4 0
-368 5 0
-368 6 0
-368 9 0
-368 12 0
-369 7 0
-369 8 0
-369 9 0
-369 10 0
-369 13 0
-369 16 0
-370 8 0
-370 9 0
-370 10 0
-370 11 0
-370 14 0
-370 17 0
-371 9 0
-371 10 0
-371 11 0
-371 12 0
-371 15 0
-371 18 0
-372 1 0
-372 4 0
-372 7 0
-372 8 0
-372 9 0
-372 10 0
-373 2 0
-373 5 0
-373 8 0
-373 9 0
-373 10 0
-373 11 0
-374 3 0
-374 6 0
-374 9 0
-374 10 0
-374 11 0
-374 12 0
-375 7 0
-375 10 0
-375 13 0
-375 14 0
-375 15 0
-375 16 0
-376 8 0
-376 11 0
-376 14 0
-376 15 0
-376 16 0
-376 17 0
-377 9 0
-377 12 0
-377 15 0
-377 16 0
-377 17 0
-377 18 0
366 367 368 369 370 371 372 373 374 375 376 377 0
-378 1 0
-378 2 0
-378 3 0
-378 7 0
-378 8 0
-378 9 0
-379 2 0
-379 3 0
-379 4 0
-379 8 0
-379 9 0
-379 10 0
-380 3 0
-380 4 0
-380 5 0
-380 9 0
-380 10 0
-380 11 0
-381 4 0
-381 5 0
-381 6 0
-381 10 0
-381 11 0
-381 12 0
-382 7 0
-382 8 0
-382 9 0
-382 13 0
-382 14 0
-382 15 0
-383 8 0
-383 9 0
-383 10 0
-383 14 0
-383 15 0
-383 16 0
-384 9 0
-384 10 0
-384 11 0
-384 15 0
-384 16 0
-384 17 0
-385 10 0
-385 11 0
-385 12 0
-385 16 0
-385 17 0
-385 18 0
-386 1 0
-386 2 0
-386 7 0
-386 8 0
-386 13 0
-386 14 0
-387 2 0
-387 3 0
-387 8 0
-387 9 0
-387 14 0
-387 15 0
-388 3 0
-388 4 0
-388 9 0
-388 10 0
-388 15 0
-388 16 0
-389 4 0
-389 5 0
-389 10 0
-389 11 0
-389 16 0
-389 17 0
-390 5 0
-390 6 0
-390 11 0
-390 12 0
-390 17 0
-390 18 0
378 379 380 381 382 383 384 385 386 387 388 389 390 0
-391 1 0
-391 2 0
-391 7 0
-391 8 0
-391 9 0
-391 14 0
-392 2 0
-392 3 0
-392 8 0
-392 9 0
-392 10 0
-392 15 0
-393 3 0
-393 4 0
-393 9 0
-393 10 0
-393 11 0
-393 16 0
-394 4 0
-394 5 0
-394 10 0
-394 11 0
-394 12 0
-394 17 0
-395 2 0
-395 3 0
-395 7 0
-395 8 0
-395 9 0
-395 14 0
-396 3 0
-396 4 0
-396 8 0
-396 9 0
-396 10 0
-396 15 0
-397 4 0
-397 5 0
-397 9 0
-397 10 0
-397 11 0
-397 16 0
-398 5 0
-398 6 0
-398 10 0
-398 11 0
-398 12 0
-398 17 0
-399 2 0
-399 7 0
-399 8 0
-399 9 0
-399 14 0
-399 15 0
-400 3 0
-400 8 0
-400 9 0
-400 10 0
-400 15 0
-400 16 0
-401 4 0
-401 9 0
-401 10 0
-401 11 0
-401 16 0
-401 17 0
-402 5 0
-402 10 0
-402 11 0
-402 12 0
-402 17 0
-402 18 0
-403 2 0
-403 7 0
-403 8 0
-403 9 0
-403 13 0
-403 14 0
-404 3 0
-404 8 0
-404 9 0
-404 10 0
-404 14 0
-404 15 0
-405 4 0
-405 9 0
-405 10 0
-405 11 0
-405 15 0
-405 16 0
-406 5 0
-406 10 0
-406 11 0
-406 12 0
-406 16 0
-406 17 0
391 392 393 394 395 396 397 398 399 400 401 402 403 404 405 406 0
-407 1 0
-407 2 0
-407 8 0
-407 9 0
-407 13 0
-407 14 0
-408 2 0
-408 3 0
-408 9 0
-408 10 0
-408 14 0
-408 15 0
-409 3 0
-409 4 0
-409 10 0
-409 11 0
-409 15 0
-409 16 0
-410 4 0
-410 5 0
-410 11 0
-410 12 0
-410 16 0
-410 17 0
-411 1 0
-411 3 0
-411 7 0
-411 8 0
-411 9 0
-411 14 0
-412 2 0
-412 4 0
-412 8 0
-412 9 0
-412 10 0
-412 15 0
-413 3 0
-413 5 0
-413 9 0
-413 10 0
-413 11 0
-413 16 0
-414 4 0
-414 6 0
-414 10 0
-414 11 0
-414 12 0
-414 17 0
-415 2 0
-415 3 0
-415 7 0
-415 8 0
-415 14 0
-415 15 0
-416 3 0
-416 4 0
-416 8 0
-416 9 0
-416 15 0
-416 16 0
-417 4 0
-417 5 0
-417 9 0
-417 10 0
-417 16 0
-417 17 0
-418 5 0
-418 6 0
-418 10 0
-418 11 0
-418 17 0
-418 18 0
-419 2 0
-419 7 0
-419 8 0
-419 9 0
-419 13 0
-419 15 0
-420 3 0
-420 8 0
-420 9 0
-420 10 0
-420 14 0
-420 16 0
-421 4 0
-421 9 0
-421 10 0
-421 11 0
-421 15 0
-421 17 0
-422 5 0
-422 10 0
-422 11 0
-422 12 0
-422 16 0
-422 18 0
407 408 409 410 411 412 413 414 415 416 417 418 419 420 421 422 0
-423 1 0
-423 2 0
-423 3 0
-423 7 0
-423 8 0
-423 13 0
-424 2 0
-424 3 0
-424 4 0
-424 8 0
-424 9 0
-424 14 0
-425 3 0
-425 4 0
-425 5 0
-425 9 0
-425 10 0
-425 15 0
-426 4 0
-426 5 0
-426 6 0
-426 10 0
-426 11 0
-426 16 0
-427 1 0
-427 2 0
-427 3 0
-427 8 0
-427 9 0
-427 15 0
-428 2 0
-428 3 0
-428 4 0
-428 9 0
-428 10 0
-428 16 0
-429 3 0
-429 4 0
-429 5 0
-429 10 0
-429 11 0
-429 17 0
-430 4 0
-430 5 0
-430 6 0
-430 11 0
-430 12 0
-430 18 0
-431 3 0
-431 8 0
-431 9 0
-431 13 0
-431 14 0
-431 15 0
-432 4 0
-432 9 0
-432 10 0
-432 14 0
-432 15 0
-432 16 0
-433 5 0
-433 10 0
-433 11 0
-433 15 0
-433 16 0
-433 17 0
-434 6 0
-434 11 0
-434 12 0
-434 16 0
-434 17 0
-434 18 0
-435 1 0
-435 7 0
-435 8 0
-435 13 0
-435 14 0
-435 15 0
-436 2 0
-436 8 0
-436 9 0
-436 14 0
-436 15 0
-436 16 0
-437 3 0
-437 9 0
-437 10 0
-437 15 0
-437 16 0
-437 17 0
-438 4 0
-438 10 0
-438 11 0
-438 16 0
-438 17 0
-438 18 0
423 424 425 426 427 428 429 430 431 432 433 434 435 436 437 438 0
-439 1 0
-439 2 0
-439 3 0
-439 4 0
-439 10 0
-439 11 0
-440 2 0
-440 3 0
-440 4 0
-440 5 0
-440 11 0
-440 12 0
-441 7 0
-441 8 0
-441 9 0
-441 10 0
-441 16 0
-441 17 0
-442 8 0
-442 9 0
-442 10 0
-442 11 0
-442 17 0
-442 18 0
-443 1 0
-443 2 0
-443 8 0
-443 9 0
-443 10 0
-443 11 0
-444 2 0
-444 3 0
-444 9 0
-444 10 0
-444 11 0
-444 12 0
-445 7 0
-445 8 0
-445 14 0
-445 15 0
-445 16 0
-445 17 0
-446 8 0
-446 9 0
-446 15 0
-446 16 0
-446 17 0
-446 18 0
-447 2 0
-447 3 0
-447 4 0
-447 5 0
-447 7 0
-447 8 0
-448 3 0
-448 4 0
-448 5 0
-448 6 0
-448 8 0
-448 9 0
-449 8 0
-449 9 0
-449 10 0
-449 11 0
-449 13 0
-449 14 0
-450 9 0
-450 10 0
-450 11 0
-450 12 0
-450 14 0
-450 15 0
-451 4 0
-451 5 0
-451 7 0
-451 8 0
-451 9 0
-451 10 0
-452 5 0
-452 6 0
-452 8 0
-452 9 0
-452 10 0
-452 11 0
-453 10 0
-453 11 0
-453 13 0
-453 14 0
-453 15 0
-453 16 0
-454 11 0
-454 12 0
-454 14 0
-454 15 0
-454 16 0
-454 17 0
439 440 441 442 443 444 445 446 447 448 449 450 451 452 453 454 0
-455 1 0
-455 2 0
-455 3 0
-455 4 0
-455 5 0
-455 8 0
-456 2 0
-456 3 0
-456 4 0
-456 5 0
-456 6 0
-456 9 0
-457 7 0
-457 8 0
-457 9 0
-457 10 0
-457 11 0
-457 14 0
-458 8 0
-458 9 0
-458 10 0
-458 11 0
-458 12 0
-458 15 0
-459 4 0
-459 7 0
-459 8 0
-459 9 0
-459 10 0
-459 11 0
-460 5 0
-460 8 0
-460 9 0
-460 10 0
-460 11 0
-460 12 0
-461 10 0
-461 13 0
-461 14 0
-461 15 0
-461 16 0
-461 17 0
-462 11 0
-462 14 0
-462 15 0
-462 16 0
-462 17 0
-462 18 0
-463 1 0
-463 2 0
-463 3 0
-463 4 0
-463 5 0
-463 10 0
-464 2 0
-464 3 0
-464 4 0
-464 5 0
-464 6 0
-464 11 0
-465 7 0
-465 8 0
-465 9 0
-465 10 0
-465 11 0
-465 16 0
-466 8 0
-466 9 0
-466 10 0
-466 11 0
-466 12 0
-466 17 0
-467 2 0
-467 7 0
-467 8 0
-467 9 0
-467 10 0
-467 11 0
-468 3 0
-468 8 0
-468 9 0
-468 10 0
-468 11 0
-468 12 0
-469 8 0
-469 13 0
-469 14 0
-469 15 0
-469 16 0
-469 17 0
-470 9 0
-470 14 0
-470 15 0
-470 16 0
-470 17 0
-470 18 0
455 456 457 458 459 460 461 462 463 464 465 466 467 468 469 470 0
-471 1 0
-471 2 0
-471 3 0
-471 4 0
-471 5 0
-471 7 0
-472 2 0
-472 3 0
-472 4 0
-472 5 0
-472 6 0
-472 8 0
-473 7 0
-473 8 0
-473 9 0
-473 10 0
-473 11 0
-473 13 0
-474 8 0
-474 9 0
-474 10 0
-474 11 0
-474 12 0
-474 14 0
-475 5 0
-475 7 0
-475 8 0
-475 9 0
-475 10 0
-475 11 0
-476 6 0
-476 8 0
-476 9 0
-476 10 0
-476 11 0
-476 12 0
-477 11 0
-477 13 0
-477 14 0
-477 15 0
-477 16 0
-477 17 0
-478 12 0
-478 14 0
-478 15 0
-478 16 0
-478 17 0
-478 18 0
-479 1 0
-479 2 0
-479 3 0
-479 4 0
-479 5 0
-479 11 0
-480 2 0
-480 3 0
-480 4 0
-480 5 0
-480 6 0
-480 12 0
-481 7 0
-481 8 0
-481 9 0
-481 10 0
-481 11 0
-481 17 0
-482 8 0
-482 9 0
-482 10 0
-482 11 0
-482 12 0
-482 18 0
-483 1 0
-483 7 0
-483 8 0
-483 9 0
-483 10 0
-483 11 0
-484 2 0
-484 8 0
-484 9 0
-484 10 0
-484 11 0
-484 12 0
-485 7 0
-485 13 0
-485 14 0
-485 15 0
-485 16 0
-485 17 0
-486 8 0
-486 14 0
-486 15 0
-486 16 0
-486 17 0
-486 18 0
471 472 473 474 475 476 477 478 479 480 481 482 483 484 485 486 0
-487 1 0
-487 2 0
-487 3 0
-487 4 0
-487 7 0
-487 8 0
-488 2 0
-488 3 0
-488 4 0
-488 5 0
-488 8 0
-488 9 0
-489 3 0
-489 4 0
-489 5 0
-489 6 0
-489 9 0
-489 10 0
-490 7 0
-490 8 0
-490 9 0
-490 10 0
-490 13 0
-490 14 0
-491 8 0
-491 9 0
-491 10 0
-491 11 0
-491 14 0
-491 15 0
-492 9 0
-492 10 0
-492 11 0
-492 12 0
-492 15 0
-492 16 0
-493 3 0
-493 4 0
-493 7 0
-493 8 0
-493 9 0
-493 10 0
-494 4 0
-494 5 0
-494 8 0
-494 9 0
-494 10 0
-494 11 0
-495 5 0
-495 6 0
-495 9 0
-495 10 0
-495 11 0
-495 12 0
-496 9 0
-496 10 0
-496 13 0
-496 14 0
-496 15 0
-496 16 0
-497 10 0
-497 11 0
-497 14 0
-497 15 0
-497 16 0
-497 17 0
-498 11 0
-498 12 0
-498 15 0
-498 16 0
-498 17 0
-498 18 0
-499 1 0
-499 2 0
-499 3 0
-499 4 0
-499 9 0
-499 10 0
-500 2 0
-500 3 0
-500 4 0
-500 5 0
-500 10 0
-500 11 0
-501 3 0
-501 4 0
-501 5 0
-501 6 0
-501 11 0
-501 12 0
-502 7 0
-502 8 0
-502 9 0
-502 10 0
-502 15 0
-502 16 0
-503 8 0
-503 9 0
-503 10 0
-503 11 0
-503 16 0
-503 17 0
-504 9 0
-504 10 0
-504 11 0
-504 12 0
-504 17 0
-504 18 0
-505 1 0
-505 2 0
-505 7 0
-505 8 0
-505 9 0
-505 10 0
-506 2 0
-506 3 0
-506 8 0
-506 9 0
-506 10 0
-506 11 0
-507 3 0
-507 4 0
-507 9 0
-507 10 0
-507 11 0
-507 12 0
-508 7 0
-508 8 0
-508 13 0
-508 14 0
-508 15 0
-508 16 0
-509 8 0
-509 9 0
-509 14 0
-509 15 0
-509 16 0
-509 17 0
-510 9 0
-510 10 0
-510 15 0
-510 16 0
-510 17 0
-510 18 0
487 488 489 490 491 492 493 494 495 496 497 498 499 500 501 502 503 504 505 506 507 508 509 510 0
-511 1 0
-511 2 0
-511 3 0
-511 4 0
-511 7 0
-511 9 0
-512 2 0
-512 3 0
-512 4 0
-512 5 0
-512 8 0
-512 10 0
-513 3 0
-513 4 0
-513 5 0
-513 6 0
-513 9 0
-513 11 0
-514 7 0
-514 8 0
-514 9 0
-514 10 0
-514 13 0
-514 15 0
-515 8 0
-515 9 0
-515 10 0
-515 11 0
-515 14 0
-515 16 0
-516 9 0
-516 10 0
-516 11 0
-516 12 0
-516 15 0
-516 17 0
-517 2 0
-517 4 0
-517 7 0
-517 8 0
-517 9 0
-517 10 0
-518 3 0
-518 5 0
-518 8 0
-518 9 0
-518 10 0
-518 11 0
-519 4 0
-519 6 0
-519 9 0
-519 10 0
-519 11 0
-519 12 0
-520 8 0
-520 10 0
-520 13 0
-520 14 0
-520 15 0
-520 16 0
-521 9 0
-521 11 0
-521 14 0
-521 15 0
-521 16 0
-521 17 0
-522 10 0
-522 12 0
-522 15 0
-522 16 0
-522 17 0
-522 18 0
-523 1 0
-523 2 0
-523 3 0
-523 4 0
-523 8 0
-523 10 0
-524 2 0
-524 3 0
-524 4 0
-524 5 0
-524 9 0
-524 11 0
-525 3 0
-525 4 0
-525 5 0
-525 6 0
-525 10 0
-525 12 0
-526 7 0
-526 8 0
-526 9 0
-526 10 0
-526 14 0
-526 16 0
-527 8 0
-527 9 0
-527 10 0
-527 11 0
-527 15 0
-527 17 0
-528 9 0
-528 10 0
-528 11 0
-528 12 0
-528 16 0
-528 18 0
-529 1 0
-529 3 0
-529 7 0
-529 8 0
-529 9 0
-529 10 0
-530 2 0
-530 4 0
-530 8 0
-530 9 0
-530 10 0
-530 11 0
-531 3 0
-531 5 0
-531 9 0
-531 10 0
-531 11 0
-531 12 0
-532 7 0
-532 9 0
-532 13 0
-532 14 0
-532 15 0
-532 16 0
-533 8 0
-533 10 0
-533 14 0
-533 15 0
-533 16 0
-533 17 0
-534 9 0
-534 11 0
-534 15 0
-534 16 0
-534 17 0
-534 18 0
511 512 513 514 515 516 517 518 519 520 521 522 523 524 525 526 527 528 529 530 531 532 533 534 0
-535 1 0
-535 2 0
-535 3 0
-535 7 0
-535 9 0
-535 10 0
-536 2 0
-536 3 0
-536 4 0
-536 8 0
-536 10 0
-536 11 0
-537 3 0
-537 4 0
-537 5 0
-537 9 0
-537 11 0
-537 12 0
-538 7 0
-538 8 0
-538 9 0
-538 13 0
-538 15 0
-538 16 0
-539 8 0
-539 9 0
-539 10 0
-539 14 0
-539 16 0
-539 17 0
-540 9 0
-540 10 0
-540 11 0
-540 15 0
-540 17 0
-540 18 0
-541 1 0
-541 2 0
-541 4 0
-541 8 0
-541 9 0
-541 10 0
-542 2 0
-542 3 0
-542 5 0
-542 9 0
-542 10 0
-542 11 0
-543 3 0
-543 4 0
-543 6 0
-543 10 0
-543 11 0
-543 12 0
-544 7 0
-544 8 0
-544 10 0
-544 14 0
-544 15 0
-544 16 0
-545 8 0
-545 9 0
-545 11 0
-545 15 0
-545 16 0
-545 17 0
-546 9 0
-546 10 0
-546 12 0
-546 16 0
-546 17 0
-546 18 0
-547 2 0
-547 3 0
-547 4 0
-547 7 0
-547 8 0
-547 10 0
-548 3 0
-548 4 0
-548 5 0
-548 8 0
-548 9 0
-548 11 0
-549 4 0
-549 5 0
-549 6 0
-549 9 0
-549 10 0
-549 12 0
-550 8 0
-550 9 0
-550 10 0
-550 13 0
-550 14 0
-550 16 0
-551 9 0
-551 10 0
-551 11 0
-551 14 0
-551 15 0
-551 17 0
-552 10 0
-552 11 0
-552 12 0
-552 15 0
-552 16 0
-552 18 0
-553 1 0
-553 3 0
-553 4 0
-553 7 0
-553 8 0
-553 9 0
-554 2 0
-554 4 0
-554 5 0
-554 8 0
-554 9 0
-554 10 0
-555 3 0
-555 5 0
-555 6 0
-555 9 0
-555 10 0
-555 11 0
-556 7 0
-556 9 0
-556 10 0
-556 13 0
-556 14 0
-556 15 0
-557 8 0
-557 10 0
-557 11 0
-557 14 0
-557 15 0
-557 16 0
-558 9 0
-558 11 0
-558 12 0
-558 15 0
-558 16 0
-558 17 0
535 536 537 538 539 540 541 542 543 544 545 546 547 548 549 550 551 552 553 554 555 556 557 558 0
-559 1 0
-559 2 0
-559 3 0
-559 7 0
-559 8 0
-559 14 0
-560 2 0
-560 3 0
-560 4 0
-560 8 0
-560 9 0
-560 15 0
-561 3 0
-561 4 0
-561 5 0
-561 9 0
-561 10 0
-561 16 0
-562 4 0
-562 5 0
-562 6 0
-562 10 0
-562 11 0
-562 17 0
-563 2 0
-563 3 0
-563 7 0
-563 8 0
-563 9 0
-563 15 0
-564 3 0
-564 4 0
-564 8 0
-564 9 0
-564 10 0
-564 16 0
-565 4 0
-565 5 0
-565 9 0
-565 10 0
-565 11 0
-565 17 0
-566 5 0
-566 6 0
-566 10 0
-566 11 0
-566 12 0
-566 18 0
-567 2 0
-567 8 0
-567 9 0
-567 13 0
-567 14 0
-567 15 0
-568 3 0
-568 9 0
-568 10 0
-568 14 0
-568 15 0
-568 16 0
-569 4 0
-569 10 0
-569 11 0
-569 15 0
-569 16 0
-569 17 0
-570 5 0
-570 11 0
-570 12 0
-570 16 0
-570 17 0
-570 18 0
-571 1 0
-571 7 0
-571 8 0
-571 9 0
-571 13 0
-571 14 0
-572 2 0
-572 8 0
-572 9 0
-572 10 0
-572 14 0
-572 15 0
-573 3 0
-573 9 0
-573 10 0
-573 11 0
-573 15 0
-573 16 0
-574 4 0
-574 10 0
-574 11 0
-574 12 0
-574 16 0
-574 17 0
-575 1 0
-575 2 0
-575 3 0
-575 8 0
-575 9 0
-575 14 0
-576 2 0
-576 3 0
-576 4 0
-576 9 0
-576 10 0
-576 15 0
-577 3 0
-577 4 0
-577 5 0
-577 10 0
-577 11 0
-577 16 0
-578 4 0
-578 5 0
-578 6 0
-578 11 0
-578 12 0
-578 17 0
-579 1 0
-579 2 0
-579 7 0
-579 8 0
-579 9 0
-579 13 0
-580 2 0
-580 3 0
-580 8 0
-580 9 0
-580 10 0
-580 14 0
-581 3 0
-581 4 0
-581 9 0
-581 10 0
-581 11 0
-581 15 0
-582 4 0
-582 5 0
-582 10 0
-582 11 0
-582 12 0
-582 16 0
-583 2 0
-583 7 0
-583 8 0
-583 13 0
-583 14 0
-583 15 0
-584 3 0
-584 8 0
-584 9 0
-584 14 0
-584 15 0
-584 16 0
-585 4 0
-585 9 0
-585 10 0
-585 15 0
-585 16 0
-585 17 0
-586 5 0
-586 10 0
-586 11 0
-586 16 0
-586 17 0
-586 18 0
-587 3 0
-587 7 0
-587 8 0
-587 9 0
-587 14 0
-587 15 0
-588 4 0
-588 8 0
-588 9 0
-588 10 0
-588 15 0
-588 16 0
-589 5 0
-589 9 0
-589 10 0
-589 11 0
-589 16 0
-589 17 0
-590 6 0
-590 10 0
-590 11 0
-590 12 0
-590 17 0
-590 18 0
559 560 561 562 563 564 565 566 567 568 569 570 571 572 573 574 575 576 577 578 579 580 581 582 583 584 585 586 587 588 589 590 0
-591 1 0
-591 2 0
-591 3 0
-591 8 0
-591 13 0
-591 14 0
-592 2 0
-592 3 0
-592 4 0
-592 9 0
-592 14 0
-592 15 0
-593 3 0
-593 4 0
-593 5 0
-593 10 0
-593 15 0
-593 16 0
-594 4 0
-594 5 0
-594 6 0
-594 11 0
-594 16 0
-594 17 0
-595 1 0
-595 3 0
-595 7 0
-595 8 0
-595 9 0
-595 15 0
-596 2 0
-596 4 0
-596 8 0
-596 9 0
-596 10 0
-596 16 0
-597 3 0
-597 5 0
-597 9 0
-597 10 0
-597 11 0
-597 17 0
-598 4 0
-598 6 0
-598 10 0
-598 11 0
-598 12 0
-598 18 0
-599 2 0
-599 3 0
-599 8 0
-599 13 0
-599 14 0
-599 15 0
-600 3 0
-600 4 0
-600 9 0
-600 14 0
-600 15 0
-600 16 0
-601 4 0
-601 5 0
-601 10 0
-601 15 0
-601 16 0
-601 17 0
-602 5 0
-602 6 0
-602 11 0
-602 16 0
-602 17 0
-602 18 0
-603 1 0
-603 7 0
-603 8 0
-603 9 0
-603 13 0
-603 15 0
-604 2 0
-604 8 0
-604 9 0
-604 10 0
-604 14 0
-604 16 0
-605 3 0
-605 9 0
-605 10 0
-605 11 0
-605 15 0
-605 17 0
-606 4 0
-606 10 0
-606 11 0
-606 12 0
-606 16 0
-606 18 0
-607 1 0
-607 2 0
-607 3 0
-607 8 0
-607 14 0
-607 15 0
-608 2 0
-608 3 0
-608 4 0
-608 9 0
-608 15 0
-608 16 0
-609 3 0
-609 4 0
-609 5 0
-609 10 0
-609 16 0
-609 17 0
-610 4 0
-610 5 0
-610 6 0
-610 11 0
-610 17 0
-610 18 0
-611 1 0
-611 3 0
-611 7 0
-611 8 0
-611 9 0
-611 13 0
-612 2 0
-612 4 0
-612 8 0
-612 9 0
-612 10 0
-612 14 0
-613 3 0
-613 5 0
-613 9 0
-613 10 0
-613 11 0
-613 15 0
-614 4 0
-614 6 0
-614 10 0
-614 11 0
-614 12 0
-614 16 0
-615 1 0
-615 2 0
-615 8 0
-615 13 0
-615 14 0
-615 15 0
-616 2 0
-616 3 0
-616 9 0
-616 14 0
-616 15 0
-616 16 0
-617 3 0
-617 4 0
-617 10 0
-617 15 0
-617 16 0
-617 17 0
-618 4 0
-618 5 0
-618 11 0
-618 16 0
-618 17 0
-618 18 0
-619 3 0
-619 7 0
-619 8 0
-619 9 0
-619 13 0
-619 15 0
-620 4 0
-620 8 0
-620 9 0
-620 10 0
-620 14 0
-620 16 0
-621 5 0
-621 9 0
-621 10 0
-621 11 0
-621 15 0
-621 17 0
-622 6 0
-622 10 0
-622 11 0
-622 12 0
-622 16 0
-622 18 0
591 592 593 594 595 596 597 598 599 600 601 602 603 604 605 606 607 608 609 610 611 612 613 614 615 616 617 618 619 620 621 622 0
-623 1 0
-623 2 0
-623 3 0
-623 7 0
-623 9 0
-623 13 0
-624 2 0
-624 3 0
-624 4 0
-624 8 0
-624 10 0
-624 14 0
-625 3 0
-625 4 0
-625 5 0
-625 9 0
-625 11 0
-625 15 0
-626 4 0
-626 5 0
-626 6 0
-626 10 0
-626 12 0
-626 16 0
-627 1 0
-627 2 0
-627 3 0
-627 9 0
-627 14 0
-627 15 0
-628 2 0
-628 3 0
-628 4 0
-628 10 0
-628 15 0
-628 16 0
-629 3 0
-629 4 0
-629 5 0
-629 11 0
-629 16 0
-629 17 0
-630 4 0
-630 5 0
-630 6 0
-630 12 0
-630 17 0
-630 18 0
-631 3 0
-631 7 0
-631 9 0
-631 13 0
-631 14 0
-631 15 0
-632 4 0
-632 8 0
-632 10 0
-632 14 0
-632 15 0
-632 16 0
-633 5 0
-633 9 0
-633 11 0
-633 15 0
-633 16 0
-633 17 0
-634 6 0
-634 10 0
-634 12 0
-634 16 0
-634 17 0
-634 18 0
-635 1 0
-635 2 0
-635 7 0
-635 13 0
-635 14 0
-635 15 0
-636 2 0
-636 3 0
-636 8 0
-636 14 0
-636 15 0
-636 16 0
-637 3 0
-637 4 0
-637 9 0
-637 15 0
-637 16 0
-637 17 0
-638 4 0
-638 5 0
-638 10 0
-638 16 0
-638 17 0
-638 18 0
-639 1 0
-639 2 0
-639 3 0
-639 7 0
-639 9 0
-639 15 0
-640 2 0
-640 3 0
-640 4 0
-640 8 0
-640 10 0
-640 16 0
-641 3 0
-641 4 0
-641 5 0
-641 9 0
-641 11 0
-641 17 0
-642 4 0
-642 5 0
-642 6 0
-642 10 0
-642 12 0
-642 18 0
-643 1 0
-643 2 0
-643 3 0
-643 7 0
-643 13 0
-643 14 0
-644 2 0
-644 3 0
-644 4 0
-644 8 0
-644 14 0
-644 15 0
-645 3 0
-645 4 0
-645 5 0
-645 9 0
-645 15 0
-645 16 0
-646 4 0
-646 5 0
-646 6 0
-646 10 0
-646 16 0
-646 17 0
-647 1 0
-647 7 0
-647 9 0
-647 13 0
-647 14 0
-647 15 0
-648 2 0
-648 8 0
-648 10 0
-648 14 0
-648 15 0
-648 16 0
-649 3 0
-649 9 0
-649 11 0
-649 15 0
-649 16 0
-649 17 0
-650 4 0
-650 10 0
-650 12 0
-650 16 0
-650 17 0
-650 18 0
-651 2 0
-651 3 0
-651 9 0
-651 13 0
-651 14 0
-651 15 0
-652 3 0
-652 4 0
-652 10 0
-652 14 0
-652 15 0
-652 16 0
-653 4 0
-653 5 0
-653 11 0
-653 15 0
-653 16 0
-653 17 0
-654 5 0
-654 6 0
-654 12 0
-654 16 0
-654 17 0
-654 18 0
623 624 625 626 627 628 629 630 631 632 633 634 635 636 637 638 639 640 641 642 643 644 645 646 647 648 649 650 651 652 653 654 0
-655 1 0
-655 2 0
-655 7 0
-655 8 0
-655 9 0
-655 15 0
-656 2 0
-656 3 0
-656 8 0
-656 9 0
-656 10 0
-656 16 0
-657 3 0
-657 4 0
-657 9 0
-657 10 0
-657 11 0
-657 17 0
-658 4 0
-658 5 0
-658 10 0
-658 11 0
-658 12 0
-658 18 0
-659 2 0
-659 3 0
-659 8 0
-659 9 0
-659 13 0
-659 14 0
-660 3 0
-660 4 0
-660 9 0
-660 10 0
-660 14 0
-660 15 0
-661 4 0
-661 5 0
-661 10 0
-661 11 0
-661 15 0
-661 16 0
-662 5 0
-662 6 0
-662 11 0
-662 12 0
-662 16 0
-662 17 0
-663 1 0
-663 7 0
-663 8 0
-663 9 0
-663 14 0
-663 15 0
-664 2 0
-664 8 0
-664 9 0
-664 10 0
-664 15 0
-664 16 0
-665 3 0
-665 9 0
-665 10 0
-665 11 0
-665 16 0
-665 17 0
-666 4 0
-666 10 0
-666 11 0
-666 12 0
-666 17 0
-666 18 0
-667 2 0
-667 3 0
-667 7 0
-667 8 0
-667 13 0
-667 14 0
-668 3 0
-668 4 0
-668 8 0
-668 9 0
-668 14 0
-668 15 0
-669 4 0
-669 5 0
-669 9 0
-669 10 0
-669 15 0
-669 16 0
-670 5 0
-670 6 0
-670 10 0
-670 11 0
-670 16 0
-670 17 0
-671 2 0
-671 3 0
-671 7 0
-671 8 0
-671 9 0
-671 13 0
-672 3 0
-672 4 0
-672 8 0
-672 9 0
-672 10 0
-672 14 0
-673 4 0
-673 5 0
-673 9 0
-673 10 0
-673 11 0
-673 15 0
-674 5 0
-674 6 0
-674 10 0
-674 11 0
-674 12 0
-674 16 0
-675 1 0
-675 2 0
-675 7 0
-675 8 0
-675 14 0
-675 15 0
-676 2 0
-676 3 0
-676 8 0
-676 9 0
-676 15 0
-676 16 0
-677 3 0
-677 4 0
-677 9 0
-677 10 0
-677 16 0
-677 17 0
-678 4 0
-678 5 0
-678 10 0
-678 11 0
-678 17 0
-678 18 0
-679 3 0
-679 7 0
-679 8 0
-679 9 0
-679 13 0
-679 14 0
-680 4 0
-680 8 0
-680 9 0
-680 10 0
-680 14 0
-680 15 0
-681 5 0
-681 9 0
-681 10 0
-681 11 0
-681 15 0
-681 16 0
-682 6 0
-682 10 0
-682 11 0
-682 12 0
-682 16 0
-682 17 0
-683 1 0
-683 2 0
-683 8 0
-683 9 0
-683 14 0
-683 15 0
-684 2 0
-684 3 0
-684 9 0
-684 10 0
-684 15 0
-684 16 0
-685 3 0
-685 4 0
-685 10 0
-685 11 0
-685 16 0
-685 17 0
-686 4 0
-686 5 0
-686 11 0
-686 12 0
-686 17 0
-686 18 0
655 656 657 658 659 660 661 662 663 664 665 666 667 668 669 670 671 672 673 674 675 676 677 678 679 680 681 682 683 684 685 686 0
